num_features = 40;
num_usage_limits = 5;
num_plans = 4;
num_addons = 0;

features = ["secureStorage","accessAndDetailedControls","desktopAccessToBoxFiles","mobileAccess","versionHistory","sslEncryption","atRestEncryption","twoFactorAuthentication","standardEnterpriseSupport","userManagement","boxApi","advancedSecurityReporting","advancedUserReporting","activeDirectoryIntegration","singleSignOn","customBranding","mobileSecurityControls","emmIntegrations","dataLossPrevention","unlimitedExternalCollaborators","completeContentVisibility","completeContentManagement","userActivityTracking","adminRoleDelegation","customMetadata","customTemplates","customTermsOfService","pciDssCompliance","boxGovernance","boxKeySafe","boxZones","hipaaCompliance","hitechCompliance","fedrampCompliance","unlimitedIntegrations","usersGroup","workAutomation","deviceTrust","passwordPolicy","documentWatermark"];
usage_limits = ["secureStorageLimit","uploadSizeLimit","minUsers","maxUsers","apiCallsLimit"];
plans = ["STARTER","BUSINESS","BUSINESS_PLUS","ENTERPRISE"];
addons = [];

plans_prices = [5,15,25,250];
addons_prices = [];

linked_features = array2d(USAGE_LIMITS, FEATURES, [
    % secureStorageLimit
    1,0,0,0,0,0,0,0,0,0,0,0,0,0,0,0,0,0,0,0,0,0,0,0,0,0,0,0,0,0,0,0,0,0,0,0,0,0,0,0,
    % uploadSizeLimit
    1,0,0,0,0,0,0,0,0,0,0,0,0,0,0,0,0,0,0,0,0,0,0,0,0,0,0,0,0,0,0,0,0,0,0,0,0,0,0,0,
    % minUsers
    0,0,0,0,0,0,0,0,0,0,0,0,0,0,0,0,0,0,0,0,0,0,0,0,0,0,0,0,0,0,0,0,0,0,0,0,0,0,0,0,
    % maxUsers
    0,0,0,0,0,0,0,0,0,0,0,0,0,0,0,0,0,0,0,0,0,0,0,0,0,0,0,0,0,0,0,0,0,0,0,0,0,0,0,0,
    % apiCallsLimit
    0,0,0,0,0,0,0,0,0,0,1,0,0,0,0,0,0,0,0,0,0,0,0,0,0,0,0,0,0,0,0,0,0,0,0,0,0,0,0,0
]);

plans_features = array2d(PLANS, FEATURES, [
    % STARTER
    1,1,1,1,1,1,1,1,1,1,1,0,0,0,0,0,0,0,0,0,0,0,0,0,0,0,0,0,0,0,0,0,0,0,0,0,0,0,0,0,
    % BUSINESS
    1,1,1,1,1,1,1,1,1,1,1,1,1,1,1,1,1,1,1,0,0,0,0,0,0,0,0,0,0,0,0,0,0,0,0,0,0,0,0,0,
    % BUSINESS_PLUS
    1,1,1,1,1,1,1,1,1,1,1,1,1,1,1,1,1,1,1,1,1,1,1,1,1,1,1,1,1,1,1,0,0,0,0,0,0,0,0,0,
    % ENTERPRISE
    1,1,1,1,1,1,1,1,1,1,1,1,1,1,1,1,1,1,1,1,1,1,0,0,1,1,0,0,1,1,1,1,1,1,1,1,1,1,1,1
]);
plans_usage_limits = array2d(PLANS, USAGE_LIMITS, [
    % STARTER
    100,2,3,10,25000,
    % BUSINESS
    Infinity,5,3,Infinity,50000,
    % BUSINESS_PLUS
    Infinity,5,3,Infinity,50000,
    % ENTERPRISE
    Infinity,5,3,Infinity,100000
]);

addons_features = array2d(ADDONS, FEATURES, [
]);
addons_usage_limits = array2d(ADDONS, USAGE_LIMITS, [
]);
addons_usage_limits_extensions = array2d(ADDONS, USAGE_LIMITS, [
]);
addons_available_for = array2d(ADDONS, PLANS, [
]);
addons_depends_on = array2d(ADDONS, ADDONS, [
]);
